\ File: ass02-p3a.lp
\
\ Assignment 2
\ Problem 3
\ Part A
\
\ Authors: Dana Cyr
\          Jake Raynor
\          Adam Bowker
\          Brayden Golas
\

Minimize
  x1 - x2
Subject To
  x1 + x2 <= 6
  x1 - x2 >= 0
  x2 - x1 >= 3
  x1 >= 0
  x2 >= 0
End